W=7;
H=3;

MAX_TIME=16;
MAX_TRACKS=12;

TARGET=(1,7);

N_TRAINS=2;
TRAINS=[(3,6,LEFT),(3,1,TOP)];

N_INIT_POS=9;
INIT_POS=[
(1,1,CORNER_DR),
(1,2,CORNER_DL),
(1,6,STRAIGHT_RL),
(1,7,STRAIGHT_RL),
(2,1,DSWITCH_D_T_R),
(2,2,DSWITCH_R_L_T),
(3,1,STRAIGHT_TD),
(3,4,SWITCH_L_R_T),
(3,6,STRAIGHT_RL),
];
N_TUNNELS=0;
TUNNEL_PAIRS=[];

N_GATES=1;
GATES=[
(1,6,1,true),
];
N_ACTIVATIONS=1;
ACTIVATIONS=[
(3,4,1),
];

N_DSWITCHES=2;
DSWITCHES=[
(2,1,1),
(2,2,1),
];
N_STATIONS=0;
STATIONS=[];
